c Random 3-CNF over 20 variables and 60 clauses
c Generated with `cnfgen`
c (C) 2012-2016 Massimo Lauria <lauria.massimo@gmail.com>
c https://massimolauria.github.io/cnfgen
c
c COMMAND LINE: cnfgen --output tmp-3-20-60.dimacs --output-format dimacs randkcnf 3 20 60
c
c sdimacs generated by gen-sdimacs
c
p cnf 20 60
r 0.5 1 2 3 4 5 6 7 8 9 10 0
e  11 12 13 14 15 16 17 18 19 20 0
2 5 15 0
-1 12 18 0
-7 11 14 0
4 -7 9 0
5 13 18 0
-6 7 9 0
-1 -4 11 0
1 12 14 0
2 -3 16 0
-3 -5 7 0
5 12 13 0
-6 15 19 0
-9 12 -19 0
-6 16 18 0
-8 10 19 0
6 8 -13 0
-12 19 -20 0
-10 -14 16 0
-7 8 15 0
4 14 20 0
2 -5 18 0
1 -6 17 0
2 -10 17 0
10 14 -16 0
3 4 -14 0
-1 4 13 0
3 -8 12 0
2 13 16 0
-3 -12 -14 0
1 3 -12 0
-4 -12 16 0
2 -3 -16 0
-4 7 -10 0
-8 -14 18 0
11 -12 18 0
-4 -6 -12 0
4 8 -9 0
4 6 19 0
-8 9 -11 0
-8 -12 -14 0
6 11 15 0
-7 12 15 0
-8 12 -13 0
1 -5 -16 0
-4 -7 -13 0
4 15 -18 0
4 8 15 0
-5 6 20 0
-2 -3 -19 0
3 -15 -19 0
-3 -5 15 0
12 14 17 0
8 10 20 0
-10 -13 19 0
-1 13 19 0
5 11 -16 0
7 16 18 0
-2 -15 17 0
-2 4 18 0
2 -7 -15 0
